Version identifier: 22.1.1.0 | 2022-11-28 | 9160aff4d
CPXPARAM_ClockType                               1
CPXPARAM_Read_DataCheck                          1
CPXPARAM_Threads                                 1
CPXPARAM_TimeLimit                               7200
CPXPARAM_MIP_Tolerances_AbsMIPGap                0
CPXPARAM_MIP_Tolerances_MIPGap                   0
CPXPARAM_MIP_Tolerances_Integrality              0
Tried aggregator 1 time.
MIP Presolve eliminated 317 rows and 1 columns.
MIP Presolve modified 162 coefficients.
Reduced MIP has 1522 rows, 749 columns, and 4346 nonzeros.
Reduced MIP has 749 binaries, 0 generals, 0 SOSs, and 0 indicators.
Presolve time = 0.01 sec. (3.07 ticks)
Found incumbent of value 80.000000 after 0.02 sec. (8.08 ticks)
Probing time = 0.00 sec. (1.41 ticks)
Tried aggregator 1 time.
Detecting symmetries...
MIP Presolve eliminated 103 rows and 4 columns.
MIP Presolve modified 2 coefficients.
Reduced MIP has 1419 rows, 745 columns, and 4034 nonzeros.
Reduced MIP has 745 binaries, 0 generals, 0 SOSs, and 0 indicators.
Presolve time = 0.01 sec. (4.29 ticks)
Probing time = 0.00 sec. (1.35 ticks)
Clique table members: 2834.
MIP emphasis: balance optimality and feasibility.
MIP search method: dynamic search.
Parallel mode: none, using 1 thread.
Root relaxation solution time = 0.02 sec. (13.27 ticks)

        Nodes                                         Cuts/
   Node  Left     Objective  IInf  Best Integer    Best Bound    ItCnt     Gap

*     0+    0                           80.0000      150.0000            87.50%
      0     0      100.0000   297       80.0000      100.0000      440   25.00%
      0     0      100.0000   364       80.0000     Cuts: 121      544   25.00%
      0     0      100.0000   323       80.0000   ZeroHalf: 1      558   25.00%
      0     0      100.0000   319       80.0000  ZeroHalf: 86      623   25.00%
      0     0      100.0000   352       80.0000 ZeroHalf: 116      728   25.00%
*     0+    0                           86.0000      100.0000            16.28%
*     0+    0                           90.0000      100.0000            11.11%
      0     0        cutoff             90.0000      100.0000      728   11.11%
Detecting symmetries...
      0     2      100.0000   227       90.0000      100.0000      728   11.11%
Elapsed time = 0.37 sec. (221.64 ticks, tree = 0.01 MB, solutions = 3)
*    11     1      integral     0      100.0000      100.0000     2161    0.00%

Zero-half cuts applied:  9

Root node processing (before b&c):
  Real time             =    0.37 sec. (221.60 ticks)
Sequential b&c:
  Real time             =    0.09 sec. (87.17 ticks)
                          ------------
Total (root+branch&cut) =    0.46 sec. (308.77 ticks)
Solution is feasible.

---------------------
@@@ MIP_optimal
>>> Benchmark flat50-4.cnf k 2 OPT 100 TimeCost 0.562903642654419 TimeSolve 0.4718647003173828 TimeRead 0.017908334732055664 TimeTrans 0.07313060760498047
